1497.97,37.8,45.31
1454.68,38.93,46.65
1355.97,41.76,50.05
1290.58,43.88,52.59
1211.95,46.72,56.0
1303.78,43.43,52.05
1231.69,45.97,55.1
1411.22,40.13,48.09
1232.02,45.96,55.09
1372.1,41.27,49.46
1368.35,41.38,49.6
1493.24,37.92,45.45
1489.77,38.01,45.56
1335.93,42.39,50.8
1296.26,43.69,52.36
1223.83,46.27,55.45
1249.78,45.31,54.3
1211.57,46.74,56.01
1281.58,44.19,52.96
1367.94,41.4,49.61
